## Paramètre de simulations -------------------------------------------------------------------------------------------------- ##

    # paramètres de simulation
	dimension    2 # Probleme 2D 
    boundary     p fm p # Condition aux limites, f condition fixe, p condition périodique
    
	atom_style   sphere 0 # Les particules seront des sphères (besoin de definir diamètre et masse pour chaque particule)
	newton       off # off = pas d'action/réaction
	comm_modify  vel yes 
    
    # géométrie
	region boite block 0 100 0 100 -0.5 0.5 units box # Crée la région "boite" 100x100x1
    box tilt large
	create_box   2 boite # Crée la "boite" avec 3 type de grains
    
	neighbor     0.2 bin # Fréquence de mise a jour de la liste des particules
	neigh_modify delay 0 #Fréquence de mise a jour de la liste des particules tout les 0 pas
    
    # région de l'échantillon 
    region limite_sup    block INF INF 93 INF INF INF # crée une région pour la limite supérieur échantillon (cf : in.floes_shearing.lmp)
    region limite_inf    block INF INF INF 7 INF INF # crée une région pour la limite inferieur échantillon (cf : in.floes_shearing.lmp)
    region zone_de_chute block 0 100 89 100 -0.5 0.5 units box # crée une région depuis laquelle les grains vont tomber
    
    # Variable du problème
    variable nbr_grain equal 809
    variable dmax equal 4.0
    variable dmin equal 3.0
    
## Fin initilisation----------------------------------------------------------------------------------------------------------- ##