### Relaxation des matériaux granulaires ###
    
## Relaxation de l'échantillon ------------------------------------------------------------------------------------------------ ##
    
    # Début de simulation
    timestep    1E-4 # Pas de temps de la simulation
    
    #minimize 0.0 0.0 500000 10000
    
    fix         temp_cste all temp/berendsen 300.0 300.0 200 # définie une température constante durant la simulation
    fix         sur_amortissement all viscous 1.0 # ajout d'une force visqueuse dans l'échantillon 
    
    fix         relaxation all press/berendsen &
                iso 0 0 500 # relaxation de l'échantillon
                               
    fix         calcul_v_m all nve/sphere disc # calcul vélocité et moment angulaire de chaque sphère
    
	fix         2Dsimu all enforce2d # assure une simulation 2D en annulant les forces/vitesse dans la direction z
    
    ## Calculs ----------------------------------------------------------------------------------------------------------------------- ## 
 
    # Calcul des contraintes dans les floes 
    compute      sigma_relax all stress/atom NULL virial # calcul les contraintes dans les floes 
    compute      moy_sigma_relax all reduce sum c_sigma_relax[*] # somme le tenseur de contrainte sur l'ensemble des floes
    
    # Calcul des voisins
    compute      voisin all contact/atom # calcul les voisins situé à d = dmin du centre d'un grain
    compute      moy_voisin all reduce ave c_voisin # moyenne du nombres de voisins
    
    # Energie cinétique des grains
    #compute      nrj_cin all ke
    
    # Déplacement des grains
    compute      u_relax all displace/atom
    compute      u_moy_relax all reduce ave c_u_relax[*][*]

## Affichage ------------------------------------------------------------------------------------------------------------------- ##
    
    # affichage : pas_de_temps/température_échantillon/ID_grain/nbre_voisin/nrj_total_échantillon/pression_appliquée/contrainte xx,xy,yy
    thermo      5000 # affichage tout les 50 000 pas de temps
    
    thermo_style custom step atoms c_moy_voisin &
                 density press c_u_moy_relax[1] c_u_moy_relax[2] &
                 lx ly ke &
                 c_moy_sigma_relax[1] c_moy_sigma_relax[2] c_moy_sigma_relax[4] &
    
    #dump		 relaxation_img all image 100000 relaxation.*.jpg type type &
    #             zoom 1.6 adiam 4.0
    #dump_modify	 relaxation_img pad 5
    
	#dump         relaxation all movie 500 relaxation.avi type type &
    #             zoom 1.6 adiam 4.0 # crée une vidéo de la relaxation
    #dump_modify relaxation pad 5 
    
## Fin de la relaxation -------------------------------------------------------------------------------------------------------- ##
    
	run	        500000 #  500 000  pas de simulations effectués

	
#fin du programme